p cnf 101 354
c p weight 12 -1 0
c p weight -12 1 0
c p weight 14 6.12323399573676603586882014729198302312846062338790031898128063403419218957424163818359375E-17 0
c p weight -14 1 0
c p weight 15 1 0
c p weight -15 1 0
c p weight 16 -1 0
c p weight -16 1 0
c p weight 18 -1 0
c p weight -18 1 0
c p weight 19 -1 0
c p weight -19 1 0
c p weight 21 -1 0
c p weight -21 1 0
c p weight 23 6.12323399573676603586882014729198302312846062338790031898128063403419218957424163818359375E-17 0
c p weight -23 1 0
c p weight 24 1 0
c p weight -24 1 0
c p weight 25 -1 0
c p weight -25 1 0
c p weight 27 -1 0
c p weight -27 1 0
c p weight 28 -1 0
c p weight -28 1 0
c p weight 30 -1 0
c p weight -30 1 0
c p weight 32 6.12323399573676603586882014729198302312846062338790031898128063403419218957424163818359375E-17 0
c p weight -32 1 0
c p weight 33 1 0
c p weight -33 1 0
c p weight 34 -1 0
c p weight -34 1 0
c p weight 36 -1 0
c p weight -36 1 0
c p weight 38 -1 0
c p weight -38 1 0
c p weight 40 6.12323399573676603586882014729198302312846062338790031898128063403419218957424163818359375E-17 0
c p weight -40 1 0
c p weight 41 1 0
c p weight -41 1 0
c p weight 42 -1 0
c p weight -42 1 0
c p weight 44 -1 0
c p weight -44 1 0
c p weight 45 -1 0
c p weight -45 1 0
c p weight 46 -1 0
c p weight -46 1 0
c p weight 48 -1 0
c p weight -48 1 0
c p weight 50 6.12323399573676603586882014729198302312846062338790031898128063403419218957424163818359375E-17 0
c p weight -50 1 0
c p weight 51 1 0
c p weight -51 1 0
c p weight 52 -1 0
c p weight -52 1 0
c p weight 54 -1 0
c p weight -54 1 0
c p weight 57 -1 0
c p weight -57 1 0
c p weight 58 -1 0
c p weight -58 1 0
c p weight 60 -1 0
c p weight -60 1 0
c p weight 62 6.12323399573676603586882014729198302312846062338790031898128063403419218957424163818359375E-17 0
c p weight -62 1 0
c p weight 63 1 0
c p weight -63 1 0
c p weight 64 -1 0
c p weight -64 1 0
c p weight 66 -1 0
c p weight -66 1 0
c p weight 69 -1 0
c p weight -69 1 0
c p weight 70 -1 0
c p weight -70 1 0
c p weight 72 -1 0
c p weight -72 1 0
c p weight 74 6.12323399573676603586882014729198302312846062338790031898128063403419218957424163818359375E-17 0
c p weight -74 1 0
c p weight 75 1 0
c p weight -75 1 0
c p weight 76 -1 0
c p weight -76 1 0
c p weight 78 -1 0
c p weight -78 1 0
c p weight 81 -1 0
c p weight -81 1 0
c p weight 83 -1 0
c p weight -83 1 0
c p weight 85 6.12323399573676603586882014729198302312846062338790031898128063403419218957424163818359375E-17 0
c p weight -85 1 0
c p weight 86 1 0
c p weight -86 1 0
c p weight 87 -1 0
c p weight -87 1 0
c p weight 89 -1 0
c p weight -89 1 0
c p weight 92 -1 0
c p weight -92 1 0
c p weight 93 -1 0
c p weight -93 1 0
c p weight 95 -1 0
c p weight -95 1 0
c p weight 97 6.12323399573676603586882014729198302312846062338790031898128063403419218957424163818359375E-17 0
c p weight -97 1 0
c p weight 98 1 0
c p weight -98 1 0
c p weight 99 -1 0
c p weight -99 1 0
c p weight 101 -1 0
c p weight -101 1 0
-9 0
-7 0
-5 0
-3 0
-1 0
11 1 -2 0
11 -1 2 0
-11 1 2 0
-11 -1 -2 0
-12 1 0
-12 2 0
12 -1 -2 0
13 -1 11 0
-13 1 11 0
-14 11 0
13 -14 -1 0
-13 -14 1 0
13 14 1 -11 0
-13 14 -1 -11 0
-15 11 0
13 -15 1 0
-13 -15 -1 0
13 15 -1 -11 0
-13 15 1 -11 0
-16 13 0
-16 11 0
-16 -1 0
16 -13 1 -11 0
17 13 -11 0
17 -13 11 0
-17 13 11 0
-17 -13 -11 0
-18 13 0
-18 11 0
18 -13 -11 0
19 -17 0
-19 17 0
20 3 -4 0
20 -3 4 0
-20 3 4 0
-20 -3 -4 0
-21 3 0
-21 4 0
21 -3 -4 0
22 -3 20 0
-22 3 20 0
-23 20 0
22 -23 -3 0
-22 -23 3 0
22 23 3 -20 0
-22 23 -3 -20 0
-24 20 0
22 -24 3 0
-22 -24 -3 0
22 24 -3 -20 0
-22 24 3 -20 0
-25 22 0
-25 20 0
-25 -3 0
25 -22 3 -20 0
26 22 -20 0
26 -22 20 0
-26 22 20 0
-26 -22 -20 0
-27 22 0
-27 20 0
27 -22 -20 0
28 -26 0
-28 26 0
29 5 -6 0
29 -5 6 0
-29 5 6 0
-29 -5 -6 0
-30 5 0
-30 6 0
30 -5 -6 0
31 -5 29 0
-31 5 29 0
-32 29 0
31 -32 -5 0
-31 -32 5 0
31 32 5 -29 0
-31 32 -5 -29 0
-33 29 0
31 -33 5 0
-31 -33 -5 0
31 33 -5 -29 0
-31 33 5 -29 0
-34 31 0
-34 29 0
-34 -5 0
34 -31 5 -29 0
35 31 -29 0
35 -31 29 0
-35 31 29 0
-35 -31 -29 0
-36 31 0
-36 29 0
36 -31 -29 0
37 7 -8 0
37 -7 8 0
-37 7 8 0
-37 -7 -8 0
-38 7 0
-38 8 0
38 -7 -8 0
39 -7 37 0
-39 7 37 0
-40 37 0
39 -40 -7 0
-39 -40 7 0
39 40 7 -37 0
-39 40 -7 -37 0
-41 37 0
39 -41 7 0
-39 -41 -7 0
39 41 -7 -37 0
-39 41 7 -37 0
-42 39 0
-42 37 0
-42 -7 0
42 -39 7 -37 0
43 39 -37 0
43 -39 37 0
-43 39 37 0
-43 -39 -37 0
-44 39 0
-44 37 0
44 -39 -37 0
45 -43 0
-45 43 0
46 -10 0
-46 10 0
47 9 -10 0
47 -9 10 0
-47 9 10 0
-47 -9 -10 0
-48 9 0
-48 10 0
48 -9 -10 0
49 -9 47 0
-49 9 47 0
-50 47 0
49 -50 -9 0
-49 -50 9 0
49 50 9 -47 0
-49 50 -9 -47 0
-51 47 0
49 -51 9 0
-49 -51 -9 0
49 51 -9 -47 0
-49 51 9 -47 0
-52 49 0
-52 47 0
-52 -9 0
52 -49 9 -47 0
53 49 -47 0
53 -49 47 0
-53 49 47 0
-53 -49 -47 0
-54 49 0
-54 47 0
54 -49 -47 0
55 13 -49 0
55 -13 49 0
-55 13 49 0
-55 -13 -49 0
56 17 -53 0
56 -17 53 0
-56 17 53 0
-56 -17 -53 0
-57 13 0
-57 53 0
-57 49 -17 0
-57 -49 17 0
57 -13 49 17 -53 0
57 -13 -49 -17 -53 0
58 -56 0
-58 56 0
59 13 -56 0
59 -13 56 0
-59 13 56 0
-59 -13 -56 0
-60 13 0
-60 56 0
60 -13 -56 0
61 -13 59 0
-61 13 59 0
-62 59 0
61 -62 -13 0
-61 -62 13 0
61 62 13 -59 0
-61 62 -13 -59 0
-63 59 0
61 -63 13 0
-61 -63 -13 0
61 63 -13 -59 0
-61 63 13 -59 0
-64 61 0
-64 59 0
-64 -13 0
64 -61 13 -59 0
65 61 -59 0
65 -61 59 0
-65 61 59 0
-65 -61 -59 0
-66 61 0
-66 59 0
66 -61 -59 0
67 22 -55 0
67 -22 55 0
-67 22 55 0
-67 -22 -55 0
68 26 -53 0
68 -26 53 0
-68 26 53 0
-68 -26 -53 0
-69 22 0
-69 53 0
-69 55 -26 0
-69 -55 26 0
69 -22 55 26 -53 0
69 -22 -55 -26 -53 0
70 -68 0
-70 68 0
71 22 -68 0
71 -22 68 0
-71 22 68 0
-71 -22 -68 0
-72 22 0
-72 68 0
72 -22 -68 0
73 -22 71 0
-73 22 71 0
-74 71 0
73 -74 -22 0
-73 -74 22 0
73 74 22 -71 0
-73 74 -22 -71 0
-75 71 0
73 -75 22 0
-73 -75 -22 0
73 75 -22 -71 0
-73 75 22 -71 0
-76 73 0
-76 71 0
-76 -22 0
76 -73 22 -71 0
77 73 -71 0
77 -73 71 0
-77 73 71 0
-77 -73 -71 0
-78 73 0
-78 71 0
78 -73 -71 0
79 31 -67 0
79 -31 67 0
-79 31 67 0
-79 -31 -67 0
80 35 -53 0
80 -35 53 0
-80 35 53 0
-80 -35 -53 0
-81 31 0
-81 53 0
-81 67 -35 0
-81 -67 35 0
81 -31 67 35 -53 0
81 -31 -67 -35 -53 0
82 31 -80 0
82 -31 80 0
-82 31 80 0
-82 -31 -80 0
-83 31 0
-83 80 0
83 -31 -80 0
84 -31 82 0
-84 31 82 0
-85 82 0
84 -85 -31 0
-84 -85 31 0
84 85 31 -82 0
-84 85 -31 -82 0
-86 82 0
84 -86 31 0
-84 -86 -31 0
84 86 -31 -82 0
-84 86 31 -82 0
-87 84 0
-87 82 0
-87 -31 0
87 -84 31 -82 0
88 84 -82 0
88 -84 82 0
-88 84 82 0
-88 -84 -82 0
-89 84 0
-89 82 0
89 -84 -82 0
90 39 -79 0
90 -39 79 0
-90 39 79 0
-90 -39 -79 0
91 43 -53 0
91 -43 53 0
-91 43 53 0
-91 -43 -53 0
-92 39 0
-92 53 0
-92 79 -43 0
-92 -79 43 0
92 -39 79 43 -53 0
92 -39 -79 -43 -53 0
93 -91 0
-93 91 0
94 39 -91 0
94 -39 91 0
-94 39 91 0
-94 -39 -91 0
-95 39 0
-95 91 0
95 -39 -91 0
96 -39 94 0
-96 39 94 0
-97 94 0
96 -97 -39 0
-96 -97 39 0
96 97 39 -94 0
-96 97 -39 -94 0
-98 94 0
96 -98 39 0
-96 -98 -39 0
96 98 -39 -94 0
-96 98 39 -94 0
-99 96 0
-99 94 0
-99 -39 0
99 -96 39 -94 0
100 96 -94 0
100 -96 94 0
-100 96 94 0
-100 -96 -94 0
-101 96 0
-101 94 0
101 -96 -94 0
-61 0
-73 0
-77 0
-84 0
-88 0
-96 0
-100 0
-90 0
-53 0
